p cnf 8 8
11 12 -13 -14 -15 16 17 -18 0
11 12 13 14 15 16 -17 18 0
-11 12 13 -14 -15 -16 17 -18 0
-11 12 -13 14 15 -16 17 -18 0
-11 12 -13 14 15 -16 17 18 0
11 12 -13 -14 -15 16 -17 18 0
11 -12 13 14 15 -16 17 18 0
-11 12 -13 -14 15 16 17 18 0
